Route_0
50	50
7	17
50	25
50	25
50	25
50	25
50	25
50	25
50	25
50	25
50	25
97	1
179	30
265	42
345	28
322	123
257	72
202	89
129	84
125	89
50	50
Route_1
50	50
96	155
55	232
34	428
52	417
137	388
158	485
367	484
452	427
440	378
466	358
498	351
459	338
444	253
438	260
365	332
326	332
314	344
189	343
187	264
146	140
50	50
